Minimize
	value: tt

Subject to
tt + 1000 s_1_1 > 0.0
tt - t_1_1 - 1006.703641 s_1_1  + 3.351820 s_1_8  + 3.351820 s_1_7  > -921.587889
tt + 1000 s_2_1 > 0.0
tt - t_2_1 - 1006.046528 s_2_1  + 3.023264 s_2_8  + 3.023264 s_2_7  > -956.476600
tt + 1000 s_1_2 > 0.0
tt - t_1_2 - 1003.351820 s_1_2  + 3.351820 s_1_7  > -921.916100
tt + 1000 s_2_2 > 0.0
tt - t_2_2 - 1003.023264 s_2_2  + 3.023264 s_2_7  > -956.283200
tt + 1000 s_1_3 > 0.0
tt - t_1_3 - 1006.703641 s_1_3  + 3.351820 s_1_8  + 3.351820 s_1_7  > -991.026400
tt + 1000 s_2_3 > 0.0
tt - t_2_3 - 1006.046528 s_2_3  + 3.023264 s_2_8  + 3.023264 s_2_7  > -994.041600
tt + 1000 s_1_4 > 0.0
tt - t_1_4 - 1003.351820 s_1_4  + 3.351820 s_1_7  > -983.349800
tt + 1000 s_2_4 > 0.0
tt - t_2_4 - 1003.023264 s_2_4  + 3.023264 s_2_7  > -990.748500
tt + 1000 s_1_5 > 0.0
tt - t_1_5 - 1003.351820 s_1_5  + 3.351820 s_1_8  > -965.668600
tt + 1000 s_2_5 > 0.0
tt - t_2_5 - 1003.023264 s_2_5  + 3.023264 s_2_8  > -978.759500
tt + 1000 s_1_6 > 0.0
tt - t_1_6 - 1020.110922 s_1_6  + 3.351820 s_1_3  + 3.351820 s_1_1  + 3.351820 s_1_4  + 3.351820 s_1_7  + 3.351820 s_1_2  + 3.351820 s_1_5  > -996.495500
tt + 1000 s_2_6 > 0.0
tt - t_2_6 - 1018.139584 s_2_6  + 3.023264 s_2_3  + 3.023264 s_2_1  + 3.023264 s_2_4  + 3.023264 s_2_7  + 3.023264 s_2_2  + 3.023264 s_2_5  > -995.104700
tt + 1000 s_1_7 > 0.0
tt - t_1_7 - 1000.000000 s_1_7  > -904.436600
tt + 1000 s_2_7 > 0.0
tt - t_2_7 - 1000.000000 s_2_7  > -953.948000
tt + 1000 s_1_8 > 0.0
tt - t_1_8 - 1000.000000 s_1_8  > -907.498200
tt + 1000 s_2_8 > 0.0
tt - t_2_8 - 1000.000000 s_2_8  > -955.619200
s_1_1 + s_2_1 = 1
s_1_2 + s_2_2 = 1
s_1_3 + s_2_3 = 1
s_1_4 + s_2_4 = 1
s_1_5 + s_2_5 = 1
s_1_6 + s_2_6 = 1
s_1_7 + s_2_7 = 1
s_1_8 + s_2_8 = 1
s_1_1 + s_1_2 + 1000 r_1_1_2 >= 2
- s_1_1 - s_1_2 - 1000 r_1_1_2 >= -1001
t_1_1 - t_1_2 - 1000.000000 u_1_1_2 - 3.351820 s_1_2  + 3.351820 s_1_7  + 2000.000000 r_1_1_2 > -921.916100
s_2_1 + s_2_2 + 1000 r_2_1_2 >= 2
- s_2_1 - s_2_2 - 1000 r_2_1_2 >= -1001
t_2_1 - t_2_2 - 1000.000000 u_2_1_2 - 3.023264 s_2_2  + 3.023264 s_2_7  + 2000.000000 r_2_1_2 > -956.283200
s_1_1 + s_1_3 + 1000 r_1_1_3 >= 2
- s_1_1 - s_1_3 - 1000 r_1_1_3 >= -1001
t_1_1 - t_1_3 - 1000.000000 u_1_1_3 - 6.703641 s_1_3  + 3.351820 s_1_8  + 3.351820 s_1_7  + 2000.000000 r_1_1_3 > -991.026400
s_2_1 + s_2_3 + 1000 r_2_1_3 >= 2
- s_2_1 - s_2_3 - 1000 r_2_1_3 >= -1001
t_2_1 - t_2_3 - 1000.000000 u_2_1_3 - 6.046528 s_2_3  + 3.023264 s_2_8  + 3.023264 s_2_7  + 2000.000000 r_2_1_3 > -994.041600
s_1_1 + s_1_4 + 1000 r_1_1_4 >= 2
- s_1_1 - s_1_4 - 1000 r_1_1_4 >= -1001
t_1_1 - t_1_4 - 1000.000000 u_1_1_4 - 3.351820 s_1_4  + 3.351820 s_1_7  + 2000.000000 r_1_1_4 > -983.349800
s_2_1 + s_2_4 + 1000 r_2_1_4 >= 2
- s_2_1 - s_2_4 - 1000 r_2_1_4 >= -1001
t_2_1 - t_2_4 - 1000.000000 u_2_1_4 - 3.023264 s_2_4  + 3.023264 s_2_7  + 2000.000000 r_2_1_4 > -990.748500
s_1_1 + s_1_5 + 1000 r_1_1_5 >= 2
- s_1_1 - s_1_5 - 1000 r_1_1_5 >= -1001
t_1_1 - t_1_5 - 1000.000000 u_1_1_5 - 3.351820 s_1_5  + 3.351820 s_1_8  + 2000.000000 r_1_1_5 > -965.668600
s_2_1 + s_2_5 + 1000 r_2_1_5 >= 2
- s_2_1 - s_2_5 - 1000 r_2_1_5 >= -1001
t_2_1 - t_2_5 - 1000.000000 u_2_1_5 - 3.023264 s_2_5  + 3.023264 s_2_8  + 2000.000000 r_2_1_5 > -978.759500
t_1_6 - t_1_1 - 1006.703641 s_1_1  + 3.351820 s_1_8  + 3.351820 s_1_7  > -921.587889
t_1_6 - t_2_1 - 1006.046528 s_2_1  + 3.023264 s_2_8  + 3.023264 s_2_7  > -956.476600
t_2_6 - t_1_1 - 1006.703641 s_1_1  + 3.351820 s_1_8  + 3.351820 s_1_7  > -921.587889
t_2_6 - t_2_1 - 1006.046528 s_2_1  + 3.023264 s_2_8  + 3.023264 s_2_7  > -956.476600
t_1_1 - t_1_7 - 1000.000000 s_1_7  > -904.436600
t_1_1 - t_2_7 - 1000.000000 s_2_7  > -953.948000
t_2_1 - t_1_7 - 1000.000000 s_1_7  > -904.436600
t_2_1 - t_2_7 - 1000.000000 s_2_7  > -953.948000
t_1_1 - t_1_8 - 1000.000000 s_1_8  > -907.498200
t_1_1 - t_2_8 - 1000.000000 s_2_8  > -955.619200
t_2_1 - t_1_8 - 1000.000000 s_1_8  > -907.498200
t_2_1 - t_2_8 - 1000.000000 s_2_8  > -955.619200
s_1_2 + s_1_1 + 1000 r_1_1_2 >= 2
- s_1_2 - s_1_1 - 1000 r_1_1_2 >= -1001
t_1_2 - t_1_1 + 1000.000000 u_1_1_2 - 6.703641 s_1_1  + 3.351820 s_1_8  + 3.351820 s_1_7  + 2000.000000 r_1_1_2 > 78.412111
s_2_2 + s_2_1 + 1000 r_2_1_2 >= 2
- s_2_2 - s_2_1 - 1000 r_2_1_2 >= -1001
t_2_2 - t_2_1 + 1000.000000 u_2_1_2 - 6.046528 s_2_1  + 3.023264 s_2_8  + 3.023264 s_2_7  + 2000.000000 r_2_1_2 > 43.523400
s_1_2 + s_1_3 + 1000 r_1_2_3 >= 2
- s_1_2 - s_1_3 - 1000 r_1_2_3 >= -1001
t_1_2 - t_1_3 - 1000.000000 u_1_2_3 - 6.703641 s_1_3  + 3.351820 s_1_8  + 3.351820 s_1_7  + 2000.000000 r_1_2_3 > -991.026400
s_2_2 + s_2_3 + 1000 r_2_2_3 >= 2
- s_2_2 - s_2_3 - 1000 r_2_2_3 >= -1001
t_2_2 - t_2_3 - 1000.000000 u_2_2_3 - 6.046528 s_2_3  + 3.023264 s_2_8  + 3.023264 s_2_7  + 2000.000000 r_2_2_3 > -994.041600
s_1_2 + s_1_4 + 1000 r_1_2_4 >= 2
- s_1_2 - s_1_4 - 1000 r_1_2_4 >= -1001
t_1_2 - t_1_4 - 1000.000000 u_1_2_4 - 3.351820 s_1_4  + 3.351820 s_1_7  + 2000.000000 r_1_2_4 > -983.349800
s_2_2 + s_2_4 + 1000 r_2_2_4 >= 2
- s_2_2 - s_2_4 - 1000 r_2_2_4 >= -1001
t_2_2 - t_2_4 - 1000.000000 u_2_2_4 - 3.023264 s_2_4  + 3.023264 s_2_7  + 2000.000000 r_2_2_4 > -990.748500
s_1_2 + s_1_5 + 1000 r_1_2_5 >= 2
- s_1_2 - s_1_5 - 1000 r_1_2_5 >= -1001
t_1_2 - t_1_5 - 1000.000000 u_1_2_5 - 3.351820 s_1_5  + 3.351820 s_1_8  + 2000.000000 r_1_2_5 > -965.668600
s_2_2 + s_2_5 + 1000 r_2_2_5 >= 2
- s_2_2 - s_2_5 - 1000 r_2_2_5 >= -1001
t_2_2 - t_2_5 - 1000.000000 u_2_2_5 - 3.023264 s_2_5  + 3.023264 s_2_8  + 2000.000000 r_2_2_5 > -978.759500
t_1_6 - t_1_2 - 1003.351820 s_1_2  + 3.351820 s_1_7  > -921.916100
t_1_6 - t_2_2 - 1003.023264 s_2_2  + 3.023264 s_2_7  > -956.283200
t_2_6 - t_1_2 - 1003.351820 s_1_2  + 3.351820 s_1_7  > -921.916100
t_2_6 - t_2_2 - 1003.023264 s_2_2  + 3.023264 s_2_7  > -956.283200
t_1_2 - t_1_7 - 1000.000000 s_1_7  > -904.436600
t_1_2 - t_2_7 - 1000.000000 s_2_7  > -953.948000
t_2_2 - t_1_7 - 1000.000000 s_1_7  > -904.436600
t_2_2 - t_2_7 - 1000.000000 s_2_7  > -953.948000
s_1_2 + s_1_8 + 1000 r_1_2_8 >= 2
- s_1_2 - s_1_8 - 1000 r_1_2_8 >= -1001
t_1_2 - t_1_8 - 1000.000000 u_1_2_8 - 0.000000 s_1_8  + 2000.000000 r_1_2_8 > -907.498200
s_2_2 + s_2_8 + 1000 r_2_2_8 >= 2
- s_2_2 - s_2_8 - 1000 r_2_2_8 >= -1001
t_2_2 - t_2_8 - 1000.000000 u_2_2_8 - 0.000000 s_2_8  + 2000.000000 r_2_2_8 > -955.619200
s_1_3 + s_1_1 + 1000 r_1_1_3 >= 2
- s_1_3 - s_1_1 - 1000 r_1_1_3 >= -1001
t_1_3 - t_1_1 + 1000.000000 u_1_1_3 - 6.703641 s_1_1  + 3.351820 s_1_8  + 3.351820 s_1_7  + 2000.000000 r_1_1_3 > 78.412111
s_2_3 + s_2_1 + 1000 r_2_1_3 >= 2
- s_2_3 - s_2_1 - 1000 r_2_1_3 >= -1001
t_2_3 - t_2_1 + 1000.000000 u_2_1_3 - 6.046528 s_2_1  + 3.023264 s_2_8  + 3.023264 s_2_7  + 2000.000000 r_2_1_3 > 43.523400
s_1_3 + s_1_2 + 1000 r_1_2_3 >= 2
- s_1_3 - s_1_2 - 1000 r_1_2_3 >= -1001
t_1_3 - t_1_2 + 1000.000000 u_1_2_3 - 3.351820 s_1_2  + 3.351820 s_1_7  + 2000.000000 r_1_2_3 > 78.083900
s_2_3 + s_2_2 + 1000 r_2_2_3 >= 2
- s_2_3 - s_2_2 - 1000 r_2_2_3 >= -1001
t_2_3 - t_2_2 + 1000.000000 u_2_2_3 - 3.023264 s_2_2  + 3.023264 s_2_7  + 2000.000000 r_2_2_3 > 43.716800
s_1_3 + s_1_4 + 1000 r_1_3_4 >= 2
- s_1_3 - s_1_4 - 1000 r_1_3_4 >= -1001
t_1_3 - t_1_4 - 1000.000000 u_1_3_4 - 3.351820 s_1_4  + 3.351820 s_1_7  + 2000.000000 r_1_3_4 > -983.349800
s_2_3 + s_2_4 + 1000 r_2_3_4 >= 2
- s_2_3 - s_2_4 - 1000 r_2_3_4 >= -1001
t_2_3 - t_2_4 - 1000.000000 u_2_3_4 - 3.023264 s_2_4  + 3.023264 s_2_7  + 2000.000000 r_2_3_4 > -990.748500
s_1_3 + s_1_5 + 1000 r_1_3_5 >= 2
- s_1_3 - s_1_5 - 1000 r_1_3_5 >= -1001
t_1_3 - t_1_5 - 1000.000000 u_1_3_5 - 3.351820 s_1_5  + 3.351820 s_1_8  + 2000.000000 r_1_3_5 > -965.668600
s_2_3 + s_2_5 + 1000 r_2_3_5 >= 2
- s_2_3 - s_2_5 - 1000 r_2_3_5 >= -1001
t_2_3 - t_2_5 - 1000.000000 u_2_3_5 - 3.023264 s_2_5  + 3.023264 s_2_8  + 2000.000000 r_2_3_5 > -978.759500
t_1_6 - t_1_3 - 1006.703641 s_1_3  + 3.351820 s_1_8  + 3.351820 s_1_7  > -991.026400
t_1_6 - t_2_3 - 1006.046528 s_2_3  + 3.023264 s_2_8  + 3.023264 s_2_7  > -994.041600
t_2_6 - t_1_3 - 1006.703641 s_1_3  + 3.351820 s_1_8  + 3.351820 s_1_7  > -991.026400
t_2_6 - t_2_3 - 1006.046528 s_2_3  + 3.023264 s_2_8  + 3.023264 s_2_7  > -994.041600
t_1_3 - t_1_7 - 1000.000000 s_1_7  > -904.436600
t_1_3 - t_2_7 - 1000.000000 s_2_7  > -953.948000
t_2_3 - t_1_7 - 1000.000000 s_1_7  > -904.436600
t_2_3 - t_2_7 - 1000.000000 s_2_7  > -953.948000
t_1_3 - t_1_8 - 1000.000000 s_1_8  > -907.498200
t_1_3 - t_2_8 - 1000.000000 s_2_8  > -955.619200
t_2_3 - t_1_8 - 1000.000000 s_1_8  > -907.498200
t_2_3 - t_2_8 - 1000.000000 s_2_8  > -955.619200
s_1_4 + s_1_1 + 1000 r_1_1_4 >= 2
- s_1_4 - s_1_1 - 1000 r_1_1_4 >= -1001
t_1_4 - t_1_1 + 1000.000000 u_1_1_4 - 6.703641 s_1_1  + 3.351820 s_1_8  + 3.351820 s_1_7  + 2000.000000 r_1_1_4 > 78.412111
s_2_4 + s_2_1 + 1000 r_2_1_4 >= 2
- s_2_4 - s_2_1 - 1000 r_2_1_4 >= -1001
t_2_4 - t_2_1 + 1000.000000 u_2_1_4 - 6.046528 s_2_1  + 3.023264 s_2_8  + 3.023264 s_2_7  + 2000.000000 r_2_1_4 > 43.523400
s_1_4 + s_1_2 + 1000 r_1_2_4 >= 2
- s_1_4 - s_1_2 - 1000 r_1_2_4 >= -1001
t_1_4 - t_1_2 + 1000.000000 u_1_2_4 - 3.351820 s_1_2  + 3.351820 s_1_7  + 2000.000000 r_1_2_4 > 78.083900
s_2_4 + s_2_2 + 1000 r_2_2_4 >= 2
- s_2_4 - s_2_2 - 1000 r_2_2_4 >= -1001
t_2_4 - t_2_2 + 1000.000000 u_2_2_4 - 3.023264 s_2_2  + 3.023264 s_2_7  + 2000.000000 r_2_2_4 > 43.716800
s_1_4 + s_1_3 + 1000 r_1_3_4 >= 2
- s_1_4 - s_1_3 - 1000 r_1_3_4 >= -1001
t_1_4 - t_1_3 + 1000.000000 u_1_3_4 - 6.703641 s_1_3  + 3.351820 s_1_8  + 3.351820 s_1_7  + 2000.000000 r_1_3_4 > 8.973600
s_2_4 + s_2_3 + 1000 r_2_3_4 >= 2
- s_2_4 - s_2_3 - 1000 r_2_3_4 >= -1001
t_2_4 - t_2_3 + 1000.000000 u_2_3_4 - 6.046528 s_2_3  + 3.023264 s_2_8  + 3.023264 s_2_7  + 2000.000000 r_2_3_4 > 5.958400
s_1_4 + s_1_5 + 1000 r_1_4_5 >= 2
- s_1_4 - s_1_5 - 1000 r_1_4_5 >= -1001
t_1_4 - t_1_5 - 1000.000000 u_1_4_5 - 3.351820 s_1_5  + 3.351820 s_1_8  + 2000.000000 r_1_4_5 > -965.668600
s_2_4 + s_2_5 + 1000 r_2_4_5 >= 2
- s_2_4 - s_2_5 - 1000 r_2_4_5 >= -1001
t_2_4 - t_2_5 - 1000.000000 u_2_4_5 - 3.023264 s_2_5  + 3.023264 s_2_8  + 2000.000000 r_2_4_5 > -978.759500
t_1_6 - t_1_4 - 1003.351820 s_1_4  + 3.351820 s_1_7  > -983.349800
t_1_6 - t_2_4 - 1003.023264 s_2_4  + 3.023264 s_2_7  > -990.748500
t_2_6 - t_1_4 - 1003.351820 s_1_4  + 3.351820 s_1_7  > -983.349800
t_2_6 - t_2_4 - 1003.023264 s_2_4  + 3.023264 s_2_7  > -990.748500
t_1_4 - t_1_7 - 1000.000000 s_1_7  > -904.436600
t_1_4 - t_2_7 - 1000.000000 s_2_7  > -953.948000
t_2_4 - t_1_7 - 1000.000000 s_1_7  > -904.436600
t_2_4 - t_2_7 - 1000.000000 s_2_7  > -953.948000
s_1_4 + s_1_8 + 1000 r_1_4_8 >= 2
- s_1_4 - s_1_8 - 1000 r_1_4_8 >= -1001
t_1_4 - t_1_8 - 1000.000000 u_1_4_8 - 0.000000 s_1_8  + 2000.000000 r_1_4_8 > -907.498200
s_2_4 + s_2_8 + 1000 r_2_4_8 >= 2
- s_2_4 - s_2_8 - 1000 r_2_4_8 >= -1001
t_2_4 - t_2_8 - 1000.000000 u_2_4_8 - 0.000000 s_2_8  + 2000.000000 r_2_4_8 > -955.619200
s_1_5 + s_1_1 + 1000 r_1_1_5 >= 2
- s_1_5 - s_1_1 - 1000 r_1_1_5 >= -1001
t_1_5 - t_1_1 + 1000.000000 u_1_1_5 - 6.703641 s_1_1  + 3.351820 s_1_8  + 3.351820 s_1_7  + 2000.000000 r_1_1_5 > 78.412111
s_2_5 + s_2_1 + 1000 r_2_1_5 >= 2
- s_2_5 - s_2_1 - 1000 r_2_1_5 >= -1001
t_2_5 - t_2_1 + 1000.000000 u_2_1_5 - 6.046528 s_2_1  + 3.023264 s_2_8  + 3.023264 s_2_7  + 2000.000000 r_2_1_5 > 43.523400
s_1_5 + s_1_2 + 1000 r_1_2_5 >= 2
- s_1_5 - s_1_2 - 1000 r_1_2_5 >= -1001
t_1_5 - t_1_2 + 1000.000000 u_1_2_5 - 3.351820 s_1_2  + 3.351820 s_1_7  + 2000.000000 r_1_2_5 > 78.083900
s_2_5 + s_2_2 + 1000 r_2_2_5 >= 2
- s_2_5 - s_2_2 - 1000 r_2_2_5 >= -1001
t_2_5 - t_2_2 + 1000.000000 u_2_2_5 - 3.023264 s_2_2  + 3.023264 s_2_7  + 2000.000000 r_2_2_5 > 43.716800
s_1_5 + s_1_3 + 1000 r_1_3_5 >= 2
- s_1_5 - s_1_3 - 1000 r_1_3_5 >= -1001
t_1_5 - t_1_3 + 1000.000000 u_1_3_5 - 6.703641 s_1_3  + 3.351820 s_1_8  + 3.351820 s_1_7  + 2000.000000 r_1_3_5 > 8.973600
s_2_5 + s_2_3 + 1000 r_2_3_5 >= 2
- s_2_5 - s_2_3 - 1000 r_2_3_5 >= -1001
t_2_5 - t_2_3 + 1000.000000 u_2_3_5 - 6.046528 s_2_3  + 3.023264 s_2_8  + 3.023264 s_2_7  + 2000.000000 r_2_3_5 > 5.958400
s_1_5 + s_1_4 + 1000 r_1_4_5 >= 2
- s_1_5 - s_1_4 - 1000 r_1_4_5 >= -1001
t_1_5 - t_1_4 + 1000.000000 u_1_4_5 - 3.351820 s_1_4  + 3.351820 s_1_7  + 2000.000000 r_1_4_5 > 16.650200
s_2_5 + s_2_4 + 1000 r_2_4_5 >= 2
- s_2_5 - s_2_4 - 1000 r_2_4_5 >= -1001
t_2_5 - t_2_4 + 1000.000000 u_2_4_5 - 3.023264 s_2_4  + 3.023264 s_2_7  + 2000.000000 r_2_4_5 > 9.251500
t_1_6 - t_1_5 - 1003.351820 s_1_5  + 3.351820 s_1_8  > -965.668600
t_1_6 - t_2_5 - 1003.023264 s_2_5  + 3.023264 s_2_8  > -978.759500
t_2_6 - t_1_5 - 1003.351820 s_1_5  + 3.351820 s_1_8  > -965.668600
t_2_6 - t_2_5 - 1003.023264 s_2_5  + 3.023264 s_2_8  > -978.759500
s_1_5 + s_1_7 + 1000 r_1_5_7 >= 2
- s_1_5 - s_1_7 - 1000 r_1_5_7 >= -1001
t_1_5 - t_1_7 - 1000.000000 u_1_5_7 - 0.000000 s_1_7  + 2000.000000 r_1_5_7 > -904.436600
s_2_5 + s_2_7 + 1000 r_2_5_7 >= 2
- s_2_5 - s_2_7 - 1000 r_2_5_7 >= -1001
t_2_5 - t_2_7 - 1000.000000 u_2_5_7 - 0.000000 s_2_7  + 2000.000000 r_2_5_7 > -953.948000
t_1_5 - t_1_8 - 1000.000000 s_1_8  > -907.498200
t_1_5 - t_2_8 - 1000.000000 s_2_8  > -955.619200
t_2_5 - t_1_8 - 1000.000000 s_1_8  > -907.498200
t_2_5 - t_2_8 - 1000.000000 s_2_8  > -955.619200
t_1_6 - t_1_7 - 1000.000000 s_1_7  > -904.436600
t_1_6 - t_2_7 - 1000.000000 s_2_7  > -953.948000
t_2_6 - t_1_7 - 1000.000000 s_1_7  > -904.436600
t_2_6 - t_2_7 - 1000.000000 s_2_7  > -953.948000
s_1_7 + s_1_5 + 1000 r_1_5_7 >= 2
- s_1_7 - s_1_5 - 1000 r_1_5_7 >= -1001
t_1_7 - t_1_5 + 1000.000000 u_1_5_7 - 3.351820 s_1_5  + 3.351820 s_1_8  + 2000.000000 r_1_5_7 > 34.331400
s_2_7 + s_2_5 + 1000 r_2_5_7 >= 2
- s_2_7 - s_2_5 - 1000 r_2_5_7 >= -1001
t_2_7 - t_2_5 + 1000.000000 u_2_5_7 - 3.023264 s_2_5  + 3.023264 s_2_8  + 2000.000000 r_2_5_7 > 21.240500
s_1_7 + s_1_8 + 1000 r_1_7_8 >= 2
- s_1_7 - s_1_8 - 1000 r_1_7_8 >= -1001
t_1_7 - t_1_8 - 1000.000000 u_1_7_8 - 0.000000 s_1_8  + 2000.000000 r_1_7_8 > -907.498200
s_2_7 + s_2_8 + 1000 r_2_7_8 >= 2
- s_2_7 - s_2_8 - 1000 r_2_7_8 >= -1001
t_2_7 - t_2_8 - 1000.000000 u_2_7_8 - 0.000000 s_2_8  + 2000.000000 r_2_7_8 > -955.619200
s_1_8 + s_1_2 + 1000 r_1_2_8 >= 2
- s_1_8 - s_1_2 - 1000 r_1_2_8 >= -1001
t_1_8 - t_1_2 + 1000.000000 u_1_2_8 - 3.351820 s_1_2  + 3.351820 s_1_7  + 2000.000000 r_1_2_8 > 78.083900
s_2_8 + s_2_2 + 1000 r_2_2_8 >= 2
- s_2_8 - s_2_2 - 1000 r_2_2_8 >= -1001
t_2_8 - t_2_2 + 1000.000000 u_2_2_8 - 3.023264 s_2_2  + 3.023264 s_2_7  + 2000.000000 r_2_2_8 > 43.716800
s_1_8 + s_1_4 + 1000 r_1_4_8 >= 2
- s_1_8 - s_1_4 - 1000 r_1_4_8 >= -1001
t_1_8 - t_1_4 + 1000.000000 u_1_4_8 - 3.351820 s_1_4  + 3.351820 s_1_7  + 2000.000000 r_1_4_8 > 16.650200
s_2_8 + s_2_4 + 1000 r_2_4_8 >= 2
- s_2_8 - s_2_4 - 1000 r_2_4_8 >= -1001
t_2_8 - t_2_4 + 1000.000000 u_2_4_8 - 3.023264 s_2_4  + 3.023264 s_2_7  + 2000.000000 r_2_4_8 > 9.251500
s_1_8 + s_1_7 + 1000 r_1_7_8 >= 2
- s_1_8 - s_1_7 - 1000 r_1_7_8 >= -1001
t_1_8 - t_1_7 + 1000.000000 u_1_7_8 - 0.000000 s_1_7  + 2000.000000 r_1_7_8 > 95.563400
s_2_8 + s_2_7 + 1000 r_2_7_8 >= 2
- s_2_8 - s_2_7 - 1000 r_2_7_8 >= -1001
t_2_8 - t_2_7 + 1000.000000 u_2_7_8 - 0.000000 s_2_7  + 2000.000000 r_2_7_8 > 46.052000
Binary
s_1_1
s_2_1
s_1_2
s_2_2
s_1_3
s_2_3
s_1_4
s_2_4
s_1_5
s_2_5
s_1_6
s_2_6
s_1_7
s_2_7
s_1_8
s_2_8
u_1_1_2
r_1_1_2
u_2_1_2
r_2_1_2
u_1_1_3
r_1_1_3
u_2_1_3
r_2_1_3
u_1_1_4
r_1_1_4
u_2_1_4
r_2_1_4
u_1_1_5
r_1_1_5
u_2_1_5
r_2_1_5
u_1_2_3
r_1_2_3
u_2_2_3
r_2_2_3
u_1_2_4
r_1_2_4
u_2_2_4
r_2_2_4
u_1_2_5
r_1_2_5
u_2_2_5
r_2_2_5
u_1_2_8
r_1_2_8
u_2_2_8
r_2_2_8
u_1_3_4
r_1_3_4
u_2_3_4
r_2_3_4
u_1_3_5
r_1_3_5
u_2_3_5
r_2_3_5
u_1_4_5
r_1_4_5
u_2_4_5
r_2_4_5
u_1_4_8
r_1_4_8
u_2_4_8
r_2_4_8
u_1_5_7
r_1_5_7
u_2_5_7
r_2_5_7
u_1_7_8
r_1_7_8
u_2_7_8
r_2_7_8

End
